SDVRP instances/custom_instances/p01_29_split0.vrp
NAME:p01_29_split
BEST_KNOWN: 0
COMMENT: 0
DIMENSION: 218
CAPACITY: 160
EDGE_WEIGHT_FORMAT: FUNCTION
EDGE_WEIGHT_TYPE: EXACT_2D
NODE_COORD_SECTION
1 0.00000 0.00000
2 -9 34
3 -9 34
4 -9 34
5 -9 34
6 -9 34
7 -9 34
8 42 39
9 42 39
10 42 39
11 42 39
12 7 2
13 7 2
14 7 2
15 7 2
16 7 2
17 11 44
18 11 44
19 11 44
20 11 44
21 11 44
22 37 -15
23 37 -15
24 37 -15
25 37 -15
26 37 -15
27 40 42
28 40 42
29 40 42
30 40 42
31 40 42
32 36 16
33 36 16
34 36 16
35 36 16
36 36 16
37 36 16
38 -44 -15
39 -44 -15
40 -44 -15
41 -44 -15
42 -33 -2
43 -33 -2
44 -33 -2
45 -33 -2
46 -33 -2
47 -6 -4
48 -6 -4
49 -6 -4
50 -21 4
51 -21 4
52 -21 4
53 -21 4
54 -27 -17
55 -27 -17
56 -27 -17
57 33 -35
58 33 -35
59 33 -35
60 33 -35
61 -33 6
62 -33 6
63 -33 6
64 -33 6
65 -33 6
66 -33 6
67 -17 -3
68 -17 -3
69 -17 -3
70 -17 -3
71 -17 -3
72 -17 -3
73 25 -39
74 25 -39
75 25 -39
76 25 -39
77 -24 -15
78 -24 -15
79 -24 -15
80 -34 4
81 -34 4
82 -34 4
83 -34 4
84 -34 4
85 -34 4
86 9 -46
87 9 -46
88 9 -46
89 9 -46
90 9 -46
91 9 -46
92 16 -5
93 16 -5
94 16 -5
95 16 -5
96 16 -5
97 16 -5
98 -5 30
99 -5 30
100 -5 30
101 -5 30
102 43 -49
103 43 -49
104 43 -49
105 43 -49
106 -19 -7
107 -19 -7
108 -19 -7
109 -19 -7
110 -23 -49
111 -23 -49
112 -23 -49
113 28 3
114 28 3
115 -34 -38
116 -34 -38
117 -34 -38
118 -22 31
119 -22 31
120 -22 31
121 6 37
122 6 37
123 6 37
124 6 37
125 34 29
126 34 29
127 34 29
128 -39 -26
129 -39 -26
130 -39 -26
131 -39 -26
132 -39 -26
133 10 -17
134 10 -17
135 10 -17
136 10 -17
137 10 -17
138 10 -17
139 -37 43
140 -37 43
141 -37 43
142 -37 43
143 -37 43
144 -1 -8
145 -1 -8
146 -1 -8
147 -1 -8
148 -1 -8
149 30 -42
150 30 -42
151 30 -42
152 30 -42
153 30 -42
154 20 31
155 20 31
156 20 31
157 20 31
158 -1 42
159 -1 42
160 -1 42
161 -26 17
162 -26 17
163 -48 -4
164 -48 -4
165 -48 -4
166 -48 -4
167 -29 50
168 -29 50
169 -29 50
170 -43 -18
171 -43 -18
172 -43 -18
173 -43 -18
174 34 -25
175 34 -25
176 34 -25
177 34 -25
178 34 -25
179 39 -37
180 39 -37
181 39 -37
182 39 -37
183 13 14
184 13 14
185 13 14
186 13 14
187 7 16
188 7 16
189 7 16
190 7 16
191 7 16
192 7 16
193 15 10
194 15 10
195 15 10
196 -28 -12
197 -28 -12
198 -28 -12
199 -28 -12
200 47 -38
201 47 -38
202 47 -38
203 47 -38
204 -8 -27
205 -8 -27
206 -8 -27
207 -7 -40
208 -7 -40
209 -7 -40
210 -7 -40
211 -7 -40
212 -7 -40
213 42 48
214 42 48
215 42 48
216 42 48
217 42 48
218 42 48
DEMAND_SECTION
1 0
2 32
3 8
4 2
5 2
6 2
7 1
8 32
9 16
10 8
11 1
12 32
13 16
14 8
15 2
16 1
17 16
18 8
19 2
20 2
21 2
22 32
23 32
24 8
25 2
26 1
27 16
28 2
29 2
30 2
31 1
32 32
33 16
34 8
35 2
36 2
37 2
38 32
39 16
40 8
41 1
42 32
43 8
44 2
45 2
46 1
47 32
48 16
49 1
50 32
51 16
52 8
53 1
54 32
55 2
56 2
57 32
58 32
59 2
60 1
61 16
62 8
63 2
64 2
65 2
66 1
67 32
68 8
69 2
70 2
71 2
72 1
73 32
74 32
75 2
76 2
77 16
78 2
79 2
80 16
81 8
82 2
83 2
84 2
85 1
86 32
87 8
88 2
89 2
90 2
91 1
92 32
93 16
94 8
95 2
96 2
97 1
98 32
99 16
100 8
101 1
102 32
103 32
104 8
105 1
106 32
107 16
108 8
109 1
110 32
111 16
112 1
113 32
114 16
115 32
116 32
117 1
118 32
119 2
120 1
121 32
122 2
123 2
124 2
125 16
126 2
127 2
128 16
129 8
130 2
131 2
132 2
133 32
134 16
135 8
136 2
137 2
138 2
139 32
140 2
141 2
142 2
143 1
144 32
145 32
146 8
147 2
148 2
149 32
150 32
151 8
152 2
153 1
154 16
155 2
156 2
157 2
158 32
159 32
160 1
161 32
162 32
163 32
164 32
165 2
166 1
167 32
168 32
169 8
170 32
171 32
172 2
173 2
174 32
175 8
176 2
177 2
178 2
179 32
180 8
181 2
182 2
183 32
184 32
185 8
186 1
187 32
188 32
189 8
190 2
191 2
192 2
193 32
194 2
195 2
196 32
197 16
198 2
199 1
200 16
201 2
202 2
203 1
204 32
205 16
206 1
207 32
208 32
209 2
210 2
211 2
212 1
213 32
214 8
215 2
216 2
217 2
218 1
DEPOT_SECTION
1
-1
EOF