SDVRP instances/custom_instances/p01_29_split0.sol
217 -6 4 2 5 166 167 168 141 138 142 139 140 118 117 119 -11 24 23 25 22 21 93 96 91 94 95 -12 183 182 186 187 189 191 188 190 -15 13 14 112 113 35 33 32 34 36 31 192 193 194 -42 43 165 164 162 163 40 39 37 38 78 77 76 -44 45 41 84 79 81 80 82 83 60 65 64 62 61 63 50 51 49 52 -48 47 46 106 108 105 107 69 70 67 66 68 71 -54 55 53 170 172 169 171 195 198 197 196 -89 86 88 87 85 90 207 206 210 209 208 211 205 203 -92 177 175 199 202 201 200 101 103 104 102 178 180 179 181 -99 100 98 97 1 3 160 161 -120 123 121 122 157 159 158 17 16 20 18 19 153 155 154 156 -125 124 126 10 8 7 9 213 214 212 217 216 215 30 26 29 27 28 185 184 -129 130 131 128 127 114 115 116 110 111 109 204 -133 135 132 56 59 58 57 176 174 173 -136 134 137 75 74 72 73 150 151 149 152 148 -144 145 143 147 146 0 





OBJ=
1587.903
BEST_KNOWN=
0.000